c Sudoku solution
p cnf 729 0
115 0
131 0
158 0
163 0
197 0
247 0
252 0
381 0
261 0
438 0
482 0
521 0
555 0
579 0
633 0
691 0
749 0
788 0
824 0
867 0
875 0
913 0
929 0
818 0
711 0
971 0
189 0
899 0
944 0
956 0
753 0
851 0
842 0
765 0
968 0
883 0
935 0
836 0
992 0
987 0
441 0
543 0
146 0
174 0
122 0
727 0
732 0
345 0
648 0
598 0
372 0
776 0
794 0
677 0
473 0
457 0
278 0
328 0
223 0
393 0
316 0
337 0
517 0
612 0
534 0
419 0
562 0
586 0
214 0
239 0
684 0
495 0
464 0
659 0
666 0
426 0
625 0
354 0
369 0
285 0
296 0
